/*********************************************
 * OPL 12.6.0.0 Data
 * Author: Adrian Rodriguez Bazaga, Pau Rodriguez Esmerats
 * Creation Date: 06/12/2017 at 23:03:06
 *********************************************/

nNurses=237;
maxConsec=2;
maxPresence=7;
maxHours=5;
minHours=1;
hours=24;
demand= [48 39 49 60 39 49 60 40 27 16 2 8 2 9 4 8 3 5 2 1 41 78 39 62  ];
